mapa = [|
         9,9,9,9,9,9,9,9,9|
         9,8,8,8,1,8,8,8,9|
         9,8,8,1,8,1,8,8,9|
         9,8,8,9,9,9,8,8,9|
         9,8,8,1,8,1,8,8,9|
         9,8,8,8,1,8,8,8,9|
         9,9,9,9,9,9,9,9,9|];
dimx = 7;
dimy = 9;
filav = 4;
colav = 2;
